243 1215 27 42
1 0 1
2 0 1
2 1 1
3 0 1
4 1 1
4 3 1
5 2 1
5 3 1
5 4 1
6 0 1
6 3 1
7 1 1
7 4 1
7 6 1
8 2 1
8 5 1
8 6 1
8 7 1
9 0 1
10 1 1
10 9 1
11 2 1
11 9 1
11 10 1
12 3 1
12 9 1
13 4 1
13 10 1
13 12 1
14 5 1
14 11 1
14 12 1
14 13 1
15 6 1
15 9 1
15 12 1
16 7 1
16 10 1
16 13 1
16 15 1
17 8 1
17 11 1
17 14 1
17 15 1
17 16 1
18 0 1
18 9 1
19 1 1
19 10 1
19 18 1
20 2 1
20 11 1
20 18 1
20 19 1
21 3 1
21 12 1
21 18 1
22 4 1
22 13 1
22 19 1
22 21 1
23 5 1
23 14 1
23 20 1
23 21 1
23 22 1
24 6 1
24 15 1
24 18 1
24 21 1
25 7 1
25 16 1
25 19 1
25 22 1
25 24 1
26 8 1
26 17 1
26 20 1
26 23 1
26 24 1
26 25 1
27 0 1
28 1 1
28 27 1
29 2 1
29 27 1
29 28 1
30 3 1
30 27 1
31 4 1
31 28 1
31 30 1
32 5 1
32 29 1
32 30 1
32 31 1
33 6 1
33 27 1
33 30 1
34 7 1
34 28 1
34 31 1
34 33 1
35 8 1
35 29 1
35 32 1
35 33 1
35 34 1
36 9 1
36 27 1
37 10 1
37 28 1
37 36 1
38 11 1
38 29 1
38 36 1
38 37 1
39 12 1
39 30 1
39 36 1
40 13 1
40 31 1
40 37 1
40 39 1
41 14 1
41 32 1
41 38 1
41 39 1
41 40 1
42 15 1
42 33 1
42 36 1
42 39 1
43 16 1
43 34 1
43 37 1
43 40 1
43 42 1
44 17 1
44 35 1
44 38 1
44 41 1
44 42 1
44 43 1
45 18 1
45 27 1
45 36 1
46 19 1
46 28 1
46 37 1
46 45 1
47 20 1
47 29 1
47 38 1
47 45 1
47 46 1
48 21 1
48 30 1
48 39 1
48 45 1
49 22 1
49 31 1
49 40 1
49 46 1
49 48 1
50 23 1
50 32 1
50 41 1
50 47 1
50 48 1
50 49 1
51 24 1
51 33 1
51 42 1
51 45 1
51 48 1
52 25 1
52 34 1
52 43 1
52 46 1
52 49 1
52 51 1
53 26 1
53 35 1
53 44 1
53 47 1
53 50 1
53 51 1
53 52 1
54 0 1
54 27 1
55 1 1
55 28 1
55 54 1
56 2 1
56 29 1
56 54 1
56 55 1
57 3 1
57 30 1
57 54 1
58 4 1
58 31 1
58 55 1
58 57 1
59 5 1
59 32 1
59 56 1
59 57 1
59 58 1
60 6 1
60 33 1
60 54 1
60 57 1
61 7 1
61 34 1
61 55 1
61 58 1
61 60 1
62 8 1
62 35 1
62 56 1
62 59 1
62 60 1
62 61 1
63 9 1
63 36 1
63 54 1
64 10 1
64 37 1
64 55 1
64 63 1
65 11 1
65 38 1
65 56 1
65 63 1
65 64 1
66 12 1
66 39 1
66 57 1
66 63 1
67 13 1
67 40 1
67 58 1
67 64 1
67 66 1
68 14 1
68 41 1
68 59 1
68 65 1
68 66 1
68 67 1
69 15 1
69 42 1
69 60 1
69 63 1
69 66 1
70 16 1
70 43 1
70 61 1
70 64 1
70 67 1
70 69 1
71 17 1
71 44 1
71 62 1
71 65 1
71 68 1
71 69 1
71 70 1
72 18 1
72 45 1
72 54 1
72 63 1
73 19 1
73 46 1
73 55 1
73 64 1
73 72 1
74 20 1
74 47 1
74 56 1
74 65 1
74 72 1
74 73 1
75 21 1
75 48 1
75 57 1
75 66 1
75 72 1
76 22 1
76 49 1
76 58 1
76 67 1
76 73 1
76 75 1
77 23 1
77 50 1
77 59 1
77 68 1
77 74 1
77 75 1
77 76 1
78 24 1
78 51 1
78 60 1
78 69 1
78 72 1
78 75 1
79 25 1
79 52 1
79 61 1
79 70 1
79 73 1
79 76 1
79 78 1
80 26 1
80 53 1
80 62 1
80 71 1
80 74 1
80 77 1
80 78 1
80 79 1
81 0 1
82 1 1
82 81 1
83 2 1
83 81 1
83 82 1
84 3 1
84 81 1
85 4 1
85 82 1
85 84 1
86 5 1
86 83 1
86 84 1
86 85 1
87 6 1
87 81 1
87 84 1
88 7 1
88 82 1
88 85 1
88 87 1
89 8 1
89 83 1
89 86 1
89 87 1
89 88 1
90 9 1
90 81 1
91 10 1
91 82 1
91 90 1
92 11 1
92 83 1
92 90 1
92 91 1
93 12 1
93 84 1
93 90 1
94 13 1
94 85 1
94 91 1
94 93 1
95 14 1
95 86 1
95 92 1
95 93 1
95 94 1
96 15 1
96 87 1
96 90 1
96 93 1
97 16 1
97 88 1
97 91 1
97 94 1
97 96 1
98 17 1
98 89 1
98 92 1
98 95 1
98 96 1
98 97 1
99 18 1
99 81 1
99 90 1
100 19 1
100 82 1
100 91 1
100 99 1
101 20 1
101 83 1
101 92 1
101 99 1
101 100 1
102 21 1
102 84 1
102 93 1
102 99 1
103 22 1
103 85 1
103 94 1
103 100 1
103 102 1
104 23 1
104 86 1
104 95 1
104 101 1
104 102 1
104 103 1
105 24 1
105 87 1
105 96 1
105 99 1
105 102 1
106 25 1
106 88 1
106 97 1
106 100 1
106 103 1
106 105 1
107 26 1
107 89 1
107 98 1
107 101 1
107 104 1
107 105 1
107 106 1
108 27 1
108 81 1
109 28 1
109 82 1
109 108 1
110 29 1
110 83 1
110 108 1
110 109 1
111 30 1
111 84 1
111 108 1
112 31 1
112 85 1
112 109 1
112 111 1
113 32 1
113 86 1
113 110 1
113 111 1
113 112 1
114 33 1
114 87 1
114 108 1
114 111 1
115 34 1
115 88 1
115 109 1
115 112 1
115 114 1
116 35 1
116 89 1
116 110 1
116 113 1
116 114 1
116 115 1
117 36 1
117 90 1
117 108 1
118 37 1
118 91 1
118 109 1
118 117 1
119 38 1
119 92 1
119 110 1
119 117 1
119 118 1
120 39 1
120 93 1
120 111 1
120 117 1
121 40 1
121 94 1
121 112 1
121 118 1
121 120 1
122 41 1
122 95 1
122 113 1
122 119 1
122 120 1
122 121 1
123 42 1
123 96 1
123 114 1
123 117 1
123 120 1
124 43 1
124 97 1
124 115 1
124 118 1
124 121 1
124 123 1
125 44 1
125 98 1
125 116 1
125 119 1
125 122 1
125 123 1
125 124 1
126 45 1
126 99 1
126 108 1
126 117 1
127 46 1
127 100 1
127 109 1
127 118 1
127 126 1
128 47 1
128 101 1
128 110 1
128 119 1
128 126 1
128 127 1
129 48 1
129 102 1
129 111 1
129 120 1
129 126 1
130 49 1
130 103 1
130 112 1
130 121 1
130 127 1
130 129 1
131 50 1
131 104 1
131 113 1
131 122 1
131 128 1
131 129 1
131 130 1
132 51 1
132 105 1
132 114 1
132 123 1
132 126 1
132 129 1
133 52 1
133 106 1
133 115 1
133 124 1
133 127 1
133 130 1
133 132 1
134 53 1
134 107 1
134 116 1
134 125 1
134 128 1
134 131 1
134 132 1
134 133 1
135 54 1
135 81 1
135 108 1
136 55 1
136 82 1
136 109 1
136 135 1
137 56 1
137 83 1
137 110 1
137 135 1
137 136 1
138 57 1
138 84 1
138 111 1
138 135 1
139 58 1
139 85 1
139 112 1
139 136 1
139 138 1
140 59 1
140 86 1
140 113 1
140 137 1
140 138 1
140 139 1
141 60 1
141 87 1
141 114 1
141 135 1
141 138 1
142 61 1
142 88 1
142 115 1
142 136 1
142 139 1
142 141 1
143 62 1
143 89 1
143 116 1
143 137 1
143 140 1
143 141 1
143 142 1
144 63 1
144 90 1
144 117 1
144 135 1
145 64 1
145 91 1
145 118 1
145 136 1
145 144 1
146 65 1
146 92 1
146 119 1
146 137 1
146 144 1
146 145 1
147 66 1
147 93 1
147 120 1
147 138 1
147 144 1
148 67 1
148 94 1
148 121 1
148 139 1
148 145 1
148 147 1
149 68 1
149 95 1
149 122 1
149 140 1
149 146 1
149 147 1
149 148 1
150 69 1
150 96 1
150 123 1
150 141 1
150 144 1
150 147 1
151 70 1
151 97 1
151 124 1
151 142 1
151 145 1
151 148 1
151 150 1
152 71 1
152 98 1
152 125 1
152 143 1
152 146 1
152 149 1
152 150 1
152 151 1
153 72 1
153 99 1
153 126 1
153 135 1
153 144 1
154 73 1
154 100 1
154 127 1
154 136 1
154 145 1
154 153 1
155 74 1
155 101 1
155 128 1
155 137 1
155 146 1
155 153 1
155 154 1
156 75 1
156 102 1
156 129 1
156 138 1
156 147 1
156 153 1
157 76 1
157 103 1
157 130 1
157 139 1
157 148 1
157 154 1
157 156 1
158 77 1
158 104 1
158 131 1
158 140 1
158 149 1
158 155 1
158 156 1
158 157 1
159 78 1
159 105 1
159 132 1
159 141 1
159 150 1
159 153 1
159 156 1
160 79 1
160 106 1
160 133 1
160 142 1
160 151 1
160 154 1
160 157 1
160 159 1
161 80 1
161 107 1
161 134 1
161 143 1
161 152 1
161 155 1
161 158 1
161 159 1
161 160 1
162 0 1
162 81 1
163 1 1
163 82 1
163 162 1
164 2 1
164 83 1
164 162 1
164 163 1
165 3 1
165 84 1
165 162 1
166 4 1
166 85 1
166 163 1
166 165 1
167 5 1
167 86 1
167 164 1
167 165 1
167 166 1
168 6 1
168 87 1
168 162 1
168 165 1
169 7 1
169 88 1
169 163 1
169 166 1
169 168 1
170 8 1
170 89 1
170 164 1
170 167 1
170 168 1
170 169 1
171 9 1
171 90 1
171 162 1
172 10 1
172 91 1
172 163 1
172 171 1
173 11 1
173 92 1
173 164 1
173 171 1
173 172 1
174 12 1
174 93 1
174 165 1
174 171 1
175 13 1
175 94 1
175 166 1
175 172 1
175 174 1
176 14 1
176 95 1
176 167 1
176 173 1
176 174 1
176 175 1
177 15 1
177 96 1
177 168 1
177 171 1
177 174 1
178 16 1
178 97 1
178 169 1
178 172 1
178 175 1
178 177 1
179 17 1
179 98 1
179 170 1
179 173 1
179 176 1
179 177 1
179 178 1
180 18 1
180 99 1
180 162 1
180 171 1
181 19 1
181 100 1
181 163 1
181 172 1
181 180 1
182 20 1
182 101 1
182 164 1
182 173 1
182 180 1
182 181 1
183 21 1
183 102 1
183 165 1
183 174 1
183 180 1
184 22 1
184 103 1
184 166 1
184 175 1
184 181 1
184 183 1
185 23 1
185 104 1
185 167 1
185 176 1
185 182 1
185 183 1
185 184 1
186 24 1
186 105 1
186 168 1
186 177 1
186 180 1
186 183 1
187 25 1
187 106 1
187 169 1
187 178 1
187 181 1
187 184 1
187 186 1
188 26 1
188 107 1
188 170 1
188 179 1
188 182 1
188 185 1
188 186 1
188 187 1
189 27 1
189 108 1
189 162 1
190 28 1
190 109 1
190 163 1
190 189 1
191 29 1
191 110 1
191 164 1
191 189 1
191 190 1
192 30 1
192 111 1
192 165 1
192 189 1
193 31 1
193 112 1
193 166 1
193 190 1
193 192 1
194 32 1
194 113 1
194 167 1
194 191 1
194 192 1
194 193 1
195 33 1
195 114 1
195 168 1
195 189 1
195 192 1
196 34 1
196 115 1
196 169 1
196 190 1
196 193 1
196 195 1
197 35 1
197 116 1
197 170 1
197 191 1
197 194 1
197 195 1
197 196 1
198 36 1
198 117 1
198 171 1
198 189 1
199 37 1
199 118 1
199 172 1
199 190 1
199 198 1
200 38 1
200 119 1
200 173 1
200 191 1
200 198 1
200 199 1
201 39 1
201 120 1
201 174 1
201 192 1
201 198 1
202 40 1
202 121 1
202 175 1
202 193 1
202 199 1
202 201 1
203 41 1
203 122 1
203 176 1
203 194 1
203 200 1
203 201 1
203 202 1
204 42 1
204 123 1
204 177 1
204 195 1
204 198 1
204 201 1
205 43 1
205 124 1
205 178 1
205 196 1
205 199 1
205 202 1
205 204 1
206 44 1
206 125 1
206 179 1
206 197 1
206 200 1
206 203 1
206 204 1
206 205 1
207 45 1
207 126 1
207 180 1
207 189 1
207 198 1
208 46 1
208 127 1
208 181 1
208 190 1
208 199 1
208 207 1
209 47 1
209 128 1
209 182 1
209 191 1
209 200 1
209 207 1
209 208 1
210 48 1
210 129 1
210 183 1
210 192 1
210 201 1
210 207 1
211 49 1
211 130 1
211 184 1
211 193 1
211 202 1
211 208 1
211 210 1
212 50 1
212 131 1
212 185 1
212 194 1
212 203 1
212 209 1
212 210 1
212 211 1
213 51 1
213 132 1
213 186 1
213 195 1
213 204 1
213 207 1
213 210 1
214 52 1
214 133 1
214 187 1
214 196 1
214 205 1
214 208 1
214 211 1
214 213 1
215 53 1
215 134 1
215 188 1
215 197 1
215 206 1
215 209 1
215 212 1
215 213 1
215 214 1
216 54 1
216 135 1
216 162 1
216 189 1
217 55 1
217 136 1
217 163 1
217 190 1
217 216 1
218 56 1
218 137 1
218 164 1
218 191 1
218 216 1
218 217 1
219 57 1
219 138 1
219 165 1
219 192 1
219 216 1
220 58 1
220 139 1
220 166 1
220 193 1
220 217 1
220 219 1
221 59 1
221 140 1
221 167 1
221 194 1
221 218 1
221 219 1
221 220 1
222 60 1
222 141 1
222 168 1
222 195 1
222 216 1
222 219 1
223 61 1
223 142 1
223 169 1
223 196 1
223 217 1
223 220 1
223 222 1
224 62 1
224 143 1
224 170 1
224 197 1
224 218 1
224 221 1
224 222 1
224 223 1
225 63 1
225 144 1
225 171 1
225 198 1
225 216 1
226 64 1
226 145 1
226 172 1
226 199 1
226 217 1
226 225 1
227 65 1
227 146 1
227 173 1
227 200 1
227 218 1
227 225 1
227 226 1
228 66 1
228 147 1
228 174 1
228 201 1
228 219 1
228 225 1
229 67 1
229 148 1
229 175 1
229 202 1
229 220 1
229 226 1
229 228 1
230 68 1
230 149 1
230 176 1
230 203 1
230 221 1
230 227 1
230 228 1
230 229 1
231 69 1
231 150 1
231 177 1
231 204 1
231 222 1
231 225 1
231 228 1
232 70 1
232 151 1
232 178 1
232 205 1
232 223 1
232 226 1
232 229 1
232 231 1
233 71 1
233 152 1
233 179 1
233 206 1
233 224 1
233 227 1
233 230 1
233 231 1
233 232 1
234 72 1
234 153 1
234 180 1
234 207 1
234 216 1
234 225 1
235 73 1
235 154 1
235 181 1
235 208 1
235 217 1
235 226 1
235 234 1
236 74 1
236 155 1
236 182 1
236 209 1
236 218 1
236 227 1
236 234 1
236 235 1
237 75 1
237 156 1
237 183 1
237 210 1
237 219 1
237 228 1
237 234 1
238 76 1
238 157 1
238 184 1
238 211 1
238 220 1
238 229 1
238 235 1
238 237 1
239 77 1
239 158 1
239 185 1
239 212 1
239 221 1
239 230 1
239 236 1
239 237 1
239 238 1
240 78 1
240 159 1
240 186 1
240 213 1
240 222 1
240 231 1
240 234 1
240 237 1
241 79 1
241 160 1
241 187 1
241 214 1
241 223 1
241 232 1
241 235 1
241 238 1
241 240 1
242 80 1
242 161 1
242 188 1
242 215 1
242 224 1
242 233 1
242 236 1
242 239 1
242 240 1
242 241 1
0
14
25
32
43
45
59
64
78
89
91
102
109
120
134
135
152
157
166
177
182
195
200
211
223
228
236
